12227.34,56.95,64.7
13199.24,52.76,59.94
14376.91,48.44,55.03
13017.5,53.5,60.77
12142.63,57.35,65.15
13182.89,52.83,60.01
13515.1,51.53,58.54
11820.36,58.91,66.93
13679.17,50.91,57.83
13553.0,51.38,58.37
12919.52,53.9,61.23
14458.14,48.17,54.72
13013.8,53.51,60.79
13413.92,51.92,58.98
12430.18,56.02,63.64
13376.87,52.06,59.14
13562.19,51.35,58.33
12414.29,56.1,63.73
15005.79,46.41,52.72
14798.53,47.06,53.46
